
Gurobi 9.1.2 (linux64) logging started Wed Nov 24 10:33:21 2021

Changed value of parameter LogFile to lemke_square_v-(3, 3).log-s20-l10.log
   Prev:   Default: 
Changed value of parameter Threads to 32
   Prev: 0  Min: 0  Max: 1024  Default: 0
Changed value of parameter TimeLimit to 3600.0
   Prev: inf  Min: 0.0  Max: inf  Default: inf
Changed value of parameter MIPGap to 0.4
   Prev: 0.0001  Min: 0.0  Max: inf  Default: 0.0001
Warning: variable name "X[(7, 4),(7, 3)]" has a space
Warning: constraint name "flow-constr-t0-v(3, 0)" has a space
Warning: to let Gurobi read it back, use rlp format
Gurobi Optimizer version 9.1.2 build v9.1.2rc0 (linux64)
Thread count: 16 physical cores, 32 logical processors, using up to 32 threads
Optimize a model with 5953 rows, 5440 columns and 20530 nonzeros
Model fingerprint: 0x1fa36c3e
Variable types: 0 continuous, 5440 integer (4800 binary)
Coefficient statistics:
  Matrix range     [1e+00, 1e+03]
  Objective range  [1e-01, 1e-01]
  Bounds range     [1e+00, 5e+02]
  RHS range        [1e+00, 1e+03]
Presolve removed 858 rows and 920 columns
Presolve time: 0.03s
Presolved: 5095 rows, 4520 columns, 16820 nonzeros
Variable types: 0 continuous, 4520 integer (3890 binary)

Root relaxation: objective 6.300000e+01, 118 iterations, 0.00 seconds

    Nodes    |    Current Node    |     Objective Bounds      |     Work
 Expl Unexpl |  Obj  Depth IntInf | Incumbent    BestBd   Gap | It/Node Time

     0     0   63.00000    0   52          -   63.00000      -     -    0s
H    0     0                     243.5000000   63.00000  74.1%     -    0s
H    0     0                     223.3000000   63.00000  71.8%     -    0s
     0     0   63.00000    0  113  223.30000   63.00000  71.8%     -    0s
H    0     0                     167.6000000   63.00000  62.4%     -    0s
H    0     0                     137.6000000   63.00000  54.2%     -    0s
     0     0   63.00000    0  124  137.60000   63.00000  54.2%     -    0s
H    0     0                     130.1000000   63.00000  51.6%     -    0s
     0     0   63.00000    0   44  130.10000   63.00000  51.6%     -    0s
H    0     0                     129.0000000   63.00000  51.2%     -    0s
     0     0   63.00000    0   54  129.00000   63.00000  51.2%     -    0s
H    0     0                     127.7000000   63.00000  50.7%     -    0s
     0     0   63.00000    0   52  127.70000   63.00000  50.7%     -    0s
     0     0   63.00000    0   56  127.70000   63.00000  50.7%     -    0s
H    0     0                     126.1000000   63.00000  50.0%     -    0s
     0     0   63.00000    0   73  126.10000   63.00000  50.0%     -    0s
     0     0   63.00000    0   44  126.10000   63.00000  50.0%     -    0s
H    0     0                     123.2000000   63.00000  48.9%     -    0s
     0     2   63.00000    0   44  123.20000   63.00000  48.9%     -    0s
H   31    64                     107.8000000   63.00000  41.6%  39.9    2s
H   43    64                     107.7000000   63.00000  41.5%  44.4    2s
H   56    64                     104.7000000   63.00000  39.8%  46.3    2s
H   59    64                     100.2000000   63.00000  37.1%  46.2    2s

Cutting planes:
  Gomory: 3
  Cover: 131
  Implied bound: 183
  Clique: 21
  MIR: 41
  StrongCG: 1
  Flow cover: 11
  Zero half: 2
  RLT: 14
  Relax-and-lift: 45

Explored 63 nodes (7043 simplex iterations) in 2.35 seconds
Thread count was 32 (of 32 available processors)

Solution count 10: 100.2 104.7 107.7 ... 137.6

Optimal solution found (tolerance 4.00e-01)
Best objective 1.002000000000e+02, best bound 6.300000000000e+01, gap 37.1257%

Gurobi 9.1.2 (linux64) logging started Wed Nov 24 12:43:28 2021

Changed value of parameter LogFile to lemke_square_v-(3, 3).log-s20-l10.log
   Prev:   Default: 
Changed value of parameter Threads to 32
   Prev: 0  Min: 0  Max: 1024  Default: 0
Changed value of parameter TimeLimit to 3600.0
   Prev: inf  Min: 0.0  Max: inf  Default: inf
Changed value of parameter MIPGap to 0.3
   Prev: 0.0001  Min: 0.0  Max: inf  Default: 0.0001
Warning: variable name "X[(7, 4),(7, 3)]" has a space
Warning: constraint name "flow-constr-t0-v(3, 0)" has a space
Warning: to let Gurobi read it back, use rlp format
Gurobi Optimizer version 9.1.2 build v9.1.2rc0 (linux64)
Thread count: 16 physical cores, 32 logical processors, using up to 32 threads
Optimize a model with 5953 rows, 5440 columns and 20530 nonzeros
Model fingerprint: 0x1fa36c3e
Variable types: 0 continuous, 5440 integer (4800 binary)
Coefficient statistics:
  Matrix range     [1e+00, 1e+03]
  Objective range  [1e-01, 1e-01]
  Bounds range     [1e+00, 5e+02]
  RHS range        [1e+00, 1e+03]
Presolve removed 858 rows and 920 columns
Presolve time: 0.03s
Presolved: 5095 rows, 4520 columns, 16820 nonzeros
Variable types: 0 continuous, 4520 integer (3890 binary)

Root relaxation: objective 6.300000e+01, 118 iterations, 0.01 seconds

    Nodes    |    Current Node    |     Objective Bounds      |     Work
 Expl Unexpl |  Obj  Depth IntInf | Incumbent    BestBd   Gap | It/Node Time

     0     0   63.00000    0   52          -   63.00000      -     -    0s
H    0     0                     243.5000000   63.00000  74.1%     -    0s
H    0     0                     223.3000000   63.00000  71.8%     -    0s
     0     0   63.00000    0  113  223.30000   63.00000  71.8%     -    0s
H    0     0                     167.6000000   63.00000  62.4%     -    0s
H    0     0                     137.6000000   63.00000  54.2%     -    0s
     0     0   63.00000    0  124  137.60000   63.00000  54.2%     -    0s
H    0     0                     130.1000000   63.00000  51.6%     -    0s
     0     0   63.00000    0   44  130.10000   63.00000  51.6%     -    0s
H    0     0                     129.0000000   63.00000  51.2%     -    0s
     0     0   63.00000    0   54  129.00000   63.00000  51.2%     -    0s
H    0     0                     127.7000000   63.00000  50.7%     -    0s
     0     0   63.00000    0   52  127.70000   63.00000  50.7%     -    0s
     0     0   63.00000    0   56  127.70000   63.00000  50.7%     -    0s
H    0     0                     126.1000000   63.00000  50.0%     -    0s
     0     0   63.00000    0   73  126.10000   63.00000  50.0%     -    0s
     0     0   63.00000    0   44  126.10000   63.00000  50.0%     -    0s
H    0     0                     123.2000000   63.00000  48.9%     -    0s
     0     2   63.00000    0   44  123.20000   63.00000  48.9%     -    0s
H   31    64                     107.8000000   63.00000  41.6%  39.9    2s
H   43    64                     107.7000000   63.00000  41.5%  44.4    2s
H   56    64                     104.7000000   63.00000  39.8%  46.3    2s
H   59    64                     100.2000000   63.00000  37.1%  46.2    2s
H   95   128                      99.4000000   63.00000  36.6%  41.8    4s
H   96   128                      96.2000000   63.00000  34.5%  41.8    4s
H   97   128                      93.0000000   63.00000  32.3%  41.6    4s
H  119   128                      92.1000000   63.00000  31.6%  35.7    4s
  3465  4991   70.30000   91   70   92.10000   63.00000  31.6%  14.9    5s
H 9839  8624                      80.7000000   63.00000  21.9%  10.9    8s

Cutting planes:
  Gomory: 4
  Cover: 202
  Implied bound: 349
  Clique: 21
  MIR: 55
  StrongCG: 2
  Flow cover: 13
  Zero half: 4
  RLT: 28
  Relax-and-lift: 63

Explored 10181 nodes (117436 simplex iterations) in 8.36 seconds
Thread count was 32 (of 32 available processors)

Solution count 10: 80.7 92.1 93 ... 123.2

Optimal solution found (tolerance 3.00e-01)
Best objective 8.070000000000e+01, best bound 6.300000000000e+01, gap 21.9331%
